% Instancia generada para Grupo 5
% Diámetros: [75, 100, 150] mm
% Capacidades: [795, 1414, 3181] l/min
% Demanda total: 2901 l/min
% Costos tipo a: 851, tipo b: 841
% Semilla: 70252

nP = 4;
nT = 16;
nC1 = 10;
nC2 = 34;
N = 64;

nA = 564;
arc_from = [1, 1, 1, 1, 1, 1, 1, 1, 1, 1, 1, 1, 1, 1, 1, 1, 2, 2, 2, 2, 2, 2, 2, 2, 2, 2, 2, 2, 2, 2, 2, 2, 3, 3, 3, 3, 3, 3, 3, 3, 3, 3, 3, 3, 3, 3, 3, 3, 4, 4, 4, 4, 4, 4, 4, 4, 4, 4, 4, 4, 4, 4, 4, 4, 5, 5, 5, 5, 5, 5, 5, 5, 5, 5, 6, 6, 6, 6, 6, 6, 6, 6, 6, 6, 7, 7, 7, 7, 7, 7, 7, 7, 7, 7, 8, 8, 8, 8, 8, 8, 8, 8, 8, 8, 9, 9, 9, 9, 9, 9, 9, 9, 9, 9, 10, 10, 10, 10, 10, 10, 10, 10, 10, 10, 11, 11, 11, 11, 11, 11, 11, 11, 11, 11, 12, 12, 12, 12, 12, 12, 12, 12, 12, 12, 13, 13, 13, 13, 13, 13, 13, 13, 13, 13, 14, 14, 14, 14, 14, 14, 14, 14, 14, 14, 15, 15, 15, 15, 15, 15, 15, 15, 15, 15, 16, 16, 16, 16, 16, 16, 16, 16, 16, 16, 17, 17, 17, 17, 17, 17, 17, 17, 17, 17, 18, 18, 18, 18, 18, 18, 18, 18, 18, 18, 19, 19, 19, 19, 19, 19, 19, 19, 19, 19, 20, 20, 20, 20, 20, 20, 20, 20, 20, 20, 21, 21, 21, 21, 21, 21, 21, 21, 21, 21, 21, 21, 21, 21, 21, 21, 21, 21, 21, 21, 21, 21, 21, 21, 21, 21, 21, 21, 21, 21, 21, 21, 21, 21, 22, 22, 22, 22, 22, 22, 22, 22, 22, 22, 22, 22, 22, 22, 22, 22, 22, 22, 22, 22, 22, 22, 22, 22, 22, 22, 22, 22, 22, 22, 22, 22, 22, 22, 23, 23, 23, 23, 23, 23, 23, 23, 23, 23, 23, 23, 23, 23, 23, 23, 23, 23, 23, 23, 23, 23, 23, 23, 23, 23, 23, 23, 23, 23, 23, 23, 23, 23, 24, 24, 24, 24, 24, 24, 24, 24, 24, 24, 24, 24, 24, 24, 24, 24, 24, 24, 24, 24, 24, 24, 24, 24, 24, 24, 24, 24, 24, 24, 24, 24, 24, 24, 25, 25, 25, 25, 25, 25, 25, 25, 25, 25, 25, 25, 25, 25, 25, 25, 25, 25, 25, 25, 25, 25, 25, 25, 25, 25, 25, 25, 25, 25, 25, 25, 25, 25, 26, 26, 26, 26, 26, 26, 26, 26, 26, 26, 26, 26, 26, 26, 26, 26, 26, 26, 26, 26, 26, 26, 26, 26, 26, 26, 26, 26, 26, 26, 26, 26, 26, 26, 27, 27, 27, 27, 27, 27, 27, 27, 27, 27, 27, 27, 27, 27, 27, 27, 27, 27, 27, 27, 27, 27, 27, 27, 27, 27, 27, 27, 27, 27, 27, 27, 27, 27, 28, 28, 28, 28, 28, 28, 28, 28, 28, 28, 28, 28, 28, 28, 28, 28, 28, 28, 28, 28, 28, 28, 28, 28, 28, 28, 28, 28, 28, 28, 28, 28, 28, 28, 29, 29, 29, 29, 29, 29, 29, 29, 29, 29, 29, 29, 29, 29, 29, 29, 29, 29, 29, 29, 29, 29, 29, 29, 29, 29, 29, 29, 29, 29, 29, 29, 29, 29, 30, 30, 30, 30, 30, 30, 30, 30, 30, 30, 30, 30, 30, 30, 30, 30, 30, 30, 30, 30, 30, 30, 30, 30, 30, 30, 30, 30, 30, 30, 30, 30, 30, 30];
arc_to   = [5, 6, 7, 8, 9, 10, 11, 12, 13, 14, 15, 16, 17, 18, 19, 20, 5, 6, 7, 8, 9, 10, 11, 12, 13, 14, 15, 16, 17, 18, 19, 20, 5, 6, 7, 8, 9, 10, 11, 12, 13, 14, 15, 16, 17, 18, 19, 20, 5, 6, 7, 8, 9, 10, 11, 12, 13, 14, 15, 16, 17, 18, 19, 20, 21, 22, 23, 24, 25, 26, 27, 28, 29, 30, 21, 22, 23, 24, 25, 26, 27, 28, 29, 30, 21, 22, 23, 24, 25, 26, 27, 28, 29, 30, 21, 22, 23, 24, 25, 26, 27, 28, 29, 30, 21, 22, 23, 24, 25, 26, 27, 28, 29, 30, 21, 22, 23, 24, 25, 26, 27, 28, 29, 30, 21, 22, 23, 24, 25, 26, 27, 28, 29, 30, 21, 22, 23, 24, 25, 26, 27, 28, 29, 30, 21, 22, 23, 24, 25, 26, 27, 28, 29, 30, 21, 22, 23, 24, 25, 26, 27, 28, 29, 30, 21, 22, 23, 24, 25, 26, 27, 28, 29, 30, 21, 22, 23, 24, 25, 26, 27, 28, 29, 30, 21, 22, 23, 24, 25, 26, 27, 28, 29, 30, 21, 22, 23, 24, 25, 26, 27, 28, 29, 30, 21, 22, 23, 24, 25, 26, 27, 28, 29, 30, 21, 22, 23, 24, 25, 26, 27, 28, 29, 30, 31, 32, 33, 34, 35, 36, 37, 38, 39, 40, 41, 42, 43, 44, 45, 46, 47, 48, 49, 50, 51, 52, 53, 54, 55, 56, 57, 58, 59, 60, 61, 62, 63, 64, 31, 32, 33, 34, 35, 36, 37, 38, 39, 40, 41, 42, 43, 44, 45, 46, 47, 48, 49, 50, 51, 52, 53, 54, 55, 56, 57, 58, 59, 60, 61, 62, 63, 64, 31, 32, 33, 34, 35, 36, 37, 38, 39, 40, 41, 42, 43, 44, 45, 46, 47, 48, 49, 50, 51, 52, 53, 54, 55, 56, 57, 58, 59, 60, 61, 62, 63, 64, 31, 32, 33, 34, 35, 36, 37, 38, 39, 40, 41, 42, 43, 44, 45, 46, 47, 48, 49, 50, 51, 52, 53, 54, 55, 56, 57, 58, 59, 60, 61, 62, 63, 64, 31, 32, 33, 34, 35, 36, 37, 38, 39, 40, 41, 42, 43, 44, 45, 46, 47, 48, 49, 50, 51, 52, 53, 54, 55, 56, 57, 58, 59, 60, 61, 62, 63, 64, 31, 32, 33, 34, 35, 36, 37, 38, 39, 40, 41, 42, 43, 44, 45, 46, 47, 48, 49, 50, 51, 52, 53, 54, 55, 56, 57, 58, 59, 60, 61, 62, 63, 64, 31, 32, 33, 34, 35, 36, 37, 38, 39, 40, 41, 42, 43, 44, 45, 46, 47, 48, 49, 50, 51, 52, 53, 54, 55, 56, 57, 58, 59, 60, 61, 62, 63, 64, 31, 32, 33, 34, 35, 36, 37, 38, 39, 40, 41, 42, 43, 44, 45, 46, 47, 48, 49, 50, 51, 52, 53, 54, 55, 56, 57, 58, 59, 60, 61, 62, 63, 64, 31, 32, 33, 34, 35, 36, 37, 38, 39, 40, 41, 42, 43, 44, 45, 46, 47, 48, 49, 50, 51, 52, 53, 54, 55, 56, 57, 58, 59, 60, 61, 62, 63, 64, 31, 32, 33, 34, 35, 36, 37, 38, 39, 40, 41, 42, 43, 44, 45, 46, 47, 48, 49, 50, 51, 52, 53, 54, 55, 56, 57, 58, 59, 60, 61, 62, 63, 64];

demand = [0, 0, 0, 0, 0, 0, 0, 0, 0, 0, 0, 0, 0, 0, 0, 0, 0, 0, 0, 0, 68, 84, 68, 41, 98, 45, 47, 92, 54, 67, 83, 56, 40, 50, 68, 61, 81, 72, 46, 57, 81, 90, 41, 59, 54, 53, 72, 50, 92, 64, 64, 67, 48, 87, 56, 49, 91, 70, 84, 53, 42, 92, 75, 89];

install_cost = array2d(1..564, 1..3, [50, 62, 32, 20, 24, 78, 20, 24, 78, 50, 24, 78, 50, 24, 32, 20, 62, 32, 50, 62, 78, 50, 24, 78, 20, 24, 78, 20, 24, 78, 20, 62, 32, 50, 24, 78, 50, 62, 32, 20, 62, 78, 50, 24, 32, 50, 62, 78, 20, 62, 78, 20, 62, 32, 20, 24, 32, 50, 24, 78, 50, 24, 32, 20, 62, 32, 20, 62, 78, 20, 62, 32, 50, 24, 32, 20, 24, 78, 50, 62, 78, 50, 62, 78, 20, 24, 32, 20, 62, 32, 20, 24, 32, 20, 62, 32, 20, 62, 32, 50, 62, 32, 50, 24, 32, 50, 62, 78, 20, 62, 78, 50, 24, 32, 20, 24, 78, 20, 62, 32, 50, 24, 32, 20, 24, 32, 50, 24, 78, 20, 62, 78, 50, 62, 78, 50, 62, 32, 50, 62, 32, 20, 24, 78, 20, 24, 32, 20, 62, 78, 20, 62, 78, 50, 62, 78, 20, 24, 32, 20, 24, 32, 20, 62, 32, 50, 24, 78, 50, 24, 32, 20, 62, 78, 20, 62, 78, 50, 24, 78, 50, 62, 78, 20, 24, 32, 20, 62, 78, 20, 24, 32, 20, 62, 78, 20, 24, 32, 20, 24, 32, 20, 24, 32, 50, 24, 32, 50, 62, 32, 20, 62, 32, 20, 62, 78, 50, 62, 32, 50, 62, 32, 20, 62, 32, 50, 24, 78, 20, 62, 78, 20, 24, 78, 50, 24, 78, 50, 62, 78, 20, 62, 78, 20, 24, 78, 20, 62, 78, 50, 24, 32, 20, 24, 32, 20, 62, 32, 20, 24, 32, 50, 24, 32, 20, 24, 78, 20, 24, 32, 50, 62, 78, 20, 62, 32, 50, 24, 32, 20, 24, 78, 50, 24, 32, 20, 62, 32, 20, 24, 32, 50, 62, 32, 20, 62, 78, 20, 24, 78, 20, 62, 32, 50, 24, 78, 20, 62, 78, 20, 24, 32, 20, 24, 78, 50, 24, 32, 20, 62, 32, 20, 24, 32, 50, 62, 78, 20, 24, 32, 20, 62, 32, 20, 24, 32, 50, 62, 78, 20, 24, 32, 50, 24, 78, 50, 62, 78, 50, 62, 78, 20, 62, 78, 50, 62, 32, 50, 62, 32, 50, 62, 78, 50, 62, 78, 50, 62, 32, 50, 62, 32, 20, 24, 78, 50, 24, 32, 50, 24, 32, 50, 62, 78, 50, 24, 78, 20, 24, 78, 50, 62, 78, 20, 62, 32, 50, 24, 78, 20, 24, 32, 20, 62, 78, 50, 62, 32, 50, 62, 32, 50, 24, 32, 50, 62, 32, 20, 62, 32, 20, 62, 78, 50, 24, 78, 50, 24, 78, 20, 24, 78, 50, 24, 78, 50, 62, 32, 50, 24, 32, 20, 62, 32, 50, 62, 78, 50, 24, 78, 20, 62, 32, 50, 24, 32, 20, 62, 32, 20, 62, 32, 20, 24, 78, 20, 62, 78, 50, 62, 32, 20, 24, 78, 20, 24, 32, 50, 62, 32, 20, 62, 32, 20, 62, 78, 20, 24, 32, 20, 24, 78, 50, 24, 32, 20, 24, 32, 50, 62, 32, 20, 24, 78, 50, 62, 32, 50, 62, 32, 50, 62, 78, 50, 62, 32, 20, 62, 32, 20, 24, 78, 20, 62, 78, 20, 24, 78, 20, 24, 32, 50, 62, 78, 50, 62, 32, 20, 62, 78, 20, 24, 78, 20, 62, 32, 50, 24, 78, 50, 62, 32, 20, 62, 32, 20, 24, 78, 50, 24, 78, 50, 24, 32, 20, 24, 32, 50, 24, 32, 20, 24, 32, 50, 24, 32, 50, 24, 32, 50, 62, 78, 20, 24, 32, 50, 24, 78, 50, 24, 78, 50, 24, 32, 50, 62, 32, 20, 62, 32, 20, 62, 32, 20, 24, 32, 20, 24, 78, 50, 24, 32, 20, 24, 78, 50, 62, 78, 50, 24, 78, 20, 62, 32, 50, 24, 32, 50, 62, 78, 20, 24, 32, 20, 24, 78, 20, 62, 78, 50, 24, 78, 20, 62, 32, 50, 62, 78, 50, 62, 78, 50, 24, 32, 20, 24, 32, 50, 24, 32, 50, 24, 78, 50, 24, 78, 50, 62, 78, 20, 24, 32, 20, 24, 78, 50, 62, 32, 20, 24, 78, 50, 24, 32, 20, 62, 32, 20, 62, 78, 50, 62, 32, 20, 24, 78, 20, 62, 78, 20, 24, 32, 50, 62, 32, 20, 62, 32, 50, 24, 32, 20, 24, 78, 50, 62, 32, 20, 62, 78, 50, 24, 32, 20, 62, 32, 50, 24, 32, 50, 62, 32, 50, 62, 32, 50, 62, 32, 50, 24, 78, 50, 24, 78, 20, 24, 78, 50, 62, 78, 20, 62, 78, 50, 62, 32, 20, 24, 32, 20, 24, 32, 50, 24, 32, 50, 24, 78, 20, 24, 78, 50, 62, 78, 50, 62, 78, 20, 24, 32, 50, 24, 32, 50, 24, 32, 50, 24, 32, 50, 24, 32, 20, 62, 78, 20, 24, 32, 20, 62, 78, 20, 24, 32, 50, 24, 32, 20, 62, 32, 20, 62, 78, 20, 24, 78, 50, 62, 32, 50, 24, 78, 50, 24, 32, 50, 24, 32, 50, 24, 78, 50, 24, 32, 50, 62, 78, 20, 62, 78, 50, 62, 32, 20, 24, 78, 50, 24, 32, 50, 62, 78, 50, 24, 78, 50, 62, 78, 50, 62, 78, 50, 24, 78, 50, 24, 78, 20, 62, 32, 20, 24, 32, 50, 24, 78, 20, 62, 78, 20, 62, 78, 50, 24, 78, 20, 24, 78, 50, 24, 78, 20, 62, 78, 50, 24, 32, 20, 62, 32, 50, 62, 78, 20, 24, 32, 50, 62, 78, 50, 62, 78, 50, 24, 32, 20, 24, 32, 20, 62, 32, 50, 62, 78, 20, 24, 78, 20, 24, 78, 50, 62, 78, 50, 62, 78, 20, 62, 32, 20, 62, 78, 50, 24, 78, 50, 62, 32, 50, 24, 78, 50, 24, 78, 50, 62, 32, 20, 24, 32, 20, 24, 78, 50, 24, 32, 50, 24, 32, 20, 62, 78, 20, 24, 32, 50, 24, 32, 20, 62, 78, 50, 24, 32, 50, 24, 78, 50, 62, 32, 20, 24, 78, 50, 62, 32, 50, 24, 32, 20, 62, 32, 50, 24, 32, 20, 62, 32, 50, 24, 78, 20, 62, 32, 20, 24, 32, 20, 62, 32, 50, 24, 32, 50, 62, 78, 50, 62, 32, 50, 62, 78, 50, 24, 32, 50, 24, 78, 20, 24, 78, 50, 24, 32, 50, 24, 32, 50, 24, 32, 50, 24, 32, 20, 24, 78, 50, 24, 78, 20, 24, 32, 50, 62, 78, 50, 24, 78, 50, 62, 78, 20, 24, 32, 20, 62, 32, 50, 62, 78, 50, 24, 78, 20, 62, 78, 50, 24, 78, 20, 24, 78, 50, 24, 78, 20, 24, 32, 50, 62, 78, 50, 62, 78, 50, 62, 78, 50, 24, 78, 50, 62, 78, 50, 62, 78, 20, 62, 78, 20, 62, 78, 20, 24, 78, 50, 24, 78, 20, 24, 78, 50, 24, 32, 50, 62, 78, 20, 24, 78, 50, 62, 32, 50, 24, 32, 50, 62, 78, 20, 62, 32, 50, 62, 78, 50, 62, 32, 50, 24, 78, 20, 24, 78, 20, 62, 32, 20, 62, 32, 20, 24, 32, 20, 24, 78, 20, 24, 78, 50, 24, 78, 50, 24, 32, 20, 24, 32, 50, 24, 32, 20, 24, 32, 50, 62, 32, 20, 62, 32, 20, 24, 32, 20, 62, 32, 20, 62, 78, 50, 62, 32, 50, 62, 78, 50, 24, 78, 20, 62, 78, 50, 24, 32, 50, 62, 32, 50, 24, 78, 20, 24, 32, 20, 24, 78, 20, 62, 78, 50, 62, 78, 20, 24, 78, 50, 24, 32, 20, 24, 32, 50, 62, 32, 50, 24, 78, 20, 24, 32, 50, 62, 32, 50, 24, 32, 50, 62, 78, 50, 62, 32, 50, 24, 32, 50, 24, 78, 50, 62, 32, 50, 24, 78, 20, 62, 32, 20, 62, 32, 50, 62, 78, 50, 24, 78, 20, 62, 78, 20, 24, 32, 50, 24, 78, 50, 62, 32, 20, 24, 32, 20, 62, 32, 20, 62, 32, 50, 24, 32, 20, 24, 78, 20, 24, 32, 50, 62, 78, 50, 24, 32, 20, 62, 32, 20, 62, 78, 20, 62, 78, 50, 24, 78, 50, 62, 78, 50, 62, 78, 50, 62, 78, 20, 62, 32, 20, 24, 78, 50, 24, 78, 20, 24, 78, 20, 62, 78, 20, 24, 78, 50, 62, 32, 50, 24, 32, 20, 24, 32, 20, 24, 78, 20, 62, 78, 50, 24, 32, 20, 24, 32, 20, 62, 32, 20, 24, 32, 50, 24, 78, 20, 24, 32, 20, 24, 32, 20, 62, 32, 20, 62, 78, 20, 62, 32, 20, 24, 32, 20, 62, 78, 50, 62, 32, 50, 24, 78, 20, 24, 78, 20, 24, 32, 50, 62, 32, 50, 24, 32, 50, 24, 78, 50, 62, 78, 50, 62, 32, 50, 24, 32, 20, 24, 32, 50, 24, 32, 50, 24, 32, 50, 62, 78, 50, 62, 78, 20, 24, 32, 50, 62, 32, 50, 62, 32, 20, 24, 78, 20, 24, 32, 20, 62, 78, 50, 62, 78, 50, 62, 32, 20, 24, 32, 50, 62, 32, 20, 24, 78, 20, 24, 78, 50, 24, 32, 20, 62, 32, 20, 24, 78, 50, 62, 32, 20, 24, 32, 20, 24, 78, 50, 62, 78, 50, 24, 78, 50, 62, 32, 20, 24, 32, 20, 62, 32, 50, 24, 32, 50, 62, 32, 20, 62, 32, 50, 62, 78, 20, 62, 78, 20, 62, 78, 50, 24, 32, 50, 62, 78, 50, 62, 78, 50, 62, 32, 50, 62, 32, 20, 62, 78, 50, 62, 32, 20, 24, 32, 50, 24, 78, 50, 62, 32, 20, 62, 78, 50, 24, 78, 20, 24, 78, 50, 62, 78, 20, 62, 32, 50, 24, 32, 50, 62, 78, 20, 24, 78, 20, 62, 32, 50, 24, 78, 20, 24, 32, 50, 62, 32, 50, 62, 32, 50, 62, 78, 50, 24, 78, 50, 24, 78, 20, 24, 32, 50, 62, 78, 50, 62, 78, 20, 62, 78, 50, 62, 32, 50, 24, 78, 50, 62, 32, 20, 62, 32, 50, 24, 78, 20, 62, 78, 20, 24, 78, 50, 24, 32, 50, 62, 32, 20, 62, 32, 50, 62, 32, 20, 24, 32, 50, 24, 78, 50, 24, 78, 20, 24, 32, 50, 62, 32]);
trans_cost   = [7.14, 7.0, 7.75, 10.78, 8.4, 8.49, 10.99, 6.03, 7.06, 9.18, 8.74, 7.75, 9.18, 4.64, 9.8, 10.25, 9.17, 7.09, 6.17, 7.67, 9.93, 6.87, 10.64, 6.63, 6.6, 7.79, 9.99, 9.0, 6.59, 8.43, 5.72, 7.0, 8.08, 8.83, 5.25, 8.73, 9.02, 10.22, 8.45, 8.72, 7.67, 7.56, 11.27, 8.36, 5.97, 6.66, 10.42, 5.67, 2.06, 6.69, 10.68, 8.45, 10.84, 10.88, 7.95, 5.58, 10.12, 8.86, 3.8, 7.44, 7.41, 6.43, 8.52, 12.15, 10.23, 10.55, 6.1, 7.83, 4.76, 5.77, 3.94, 4.96, 9.49, 5.89, 2.94, 8.78, 7.83, 7.56, 5.6, 4.69, 6.93, 5.86, 6.88, 7.44, 6.14, 9.45, 7.01, 11.11, 11.68, 3.67, 5.51, 7.4, 9.33, 7.86, 7.46, 4.81, 6.9, 7.4, 8.98, 8.62, 5.21, 8.82, 9.22, 3.44, 8.15, 6.69, 6.5, 6.15, 7.84, 8.67, 10.25, 12.69, 6.54, 8.45, 9.15, 8.67, 6.46, 10.2, 5.75, 6.95, 6.97, 6.73, 4.35, 4.79, 9.35, 7.45, 7.31, 10.53, 8.73, 8.01, 6.81, 9.82, 9.03, 9.12, 6.56, 5.1, 11.55, 9.04, 8.0, 8.62, 6.38, 8.38, 11.43, 8.08, 7.46, 7.18, 4.63, 8.16, 9.2, 7.41, 5.48, 6.34, 5.75, 5.4, 9.64, 9.23, 10.35, 7.56, 9.2, 8.47, 8.3, 9.02, 6.83, 7.81, 8.29, 5.87, 10.79, 7.69, 11.33, 8.25, 10.26, 9.39, 4.58, 8.57, 10.12, 11.8, 7.55, 10.7, 9.06, 11.34, 8.8, 7.8, 8.4, 10.05, 8.58, 8.1, 9.26, 2.62, 5.54, 8.77, 10.21, 9.86, 8.87, 11.24, 6.38, 8.86, 11.31, 4.1, 8.64, 9.19, 6.39, 6.93, 12.49, 8.97, 7.82, 8.47, 8.63, 10.62, 6.19, 8.29, 6.55, 7.73, 8.81, 8.32, 10.16, 6.3, 6.92, 7.29, 6.92, 4.02, 7.59, 7.61, 10.23, 10.24, 4.83, 7.14, 9.29, 12.33, 2.96, 5.32, 7.52, 8.47, 7.07, 5.98, 8.67, 6.09, 9.39, 6.81, 9.45, 9.69, 8.32, 7.87, 4.62, 5.05, 7.5, 6.9, 6.96, 9.61, 6.27, 9.06, 11.0, 10.8, 8.05, 12.53, 8.65, 10.41, 9.5, 6.18, 6.29, 7.22, 9.58, 2.25, 9.59, 6.62, 7.8, 6.7, 5.57, 7.6, 3.84, 11.13, 9.9, 8.06, 7.04, 7.05, 7.77, 6.68, 11.3, 4.99, 7.26, 10.97, 7.85, 7.81, 5.57, 6.75, 8.22, 7.48, 8.96, 8.34, 13.12, 8.32, 7.82, 4.1, 6.56, 7.14, 2.41, 5.11, 10.04, 9.55, 12.71, 7.37, 9.35, 7.52, 10.02, 6.49, 5.94, 12.42, 5.69, 7.96, 10.81, 9.46, 6.13, 10.41, 6.02, 10.51, 10.49, 9.18, 9.71, 8.03, 7.96, 7.33, 6.32, 9.61, 6.49, 6.52, 6.51, 7.45, 9.41, 8.11, 7.98, 11.0, 7.45, 6.74, 9.16, 4.31, 9.2, 8.49, 8.85, 7.01, 6.04, 4.58, 9.21, 8.73, 8.4, 8.07, 8.22, 13.61, 8.36, 8.96, 9.83, 6.45, 7.51, 5.1, 9.45, 7.1, 11.16, 9.18, 11.14, 6.42, 7.2, 7.48, 7.77, 8.9, 6.23, 8.63, 9.16, 6.35, 6.89, 8.46, 8.28, 8.74, 10.45, 9.84, 5.38, 8.03, 7.21, 6.55, 6.05, 10.2, 7.66, 7.08, 7.14, 3.74, 8.43, 7.27, 9.69, 8.01, 9.64, 6.79, 5.83, 8.7, 4.3, 7.33, 6.99, 6.21, 5.72, 11.08, 6.83, 9.11, 9.5, 9.33, 7.62, 6.6, 9.67, 7.29, 5.75, 9.93, 8.31, 5.16, 13.43, 8.98, 7.99, 8.33, 7.52, 9.47, 2.24, 7.34, 9.27, 4.83, 10.38, 10.01, 10.03, 6.18, 4.85, 9.38, 6.7, 9.27, 10.2, 9.94, 5.32, 9.7, 10.78, 8.12, 7.76, 7.37, 7.92, 10.16, 7.66, 9.87, 8.2, 10.57, 9.66, 7.62, 9.62, 3.91, 9.51, 8.9, 6.04, 6.07, 7.69, 6.88, 8.86, 4.47, 11.55, 9.82, 6.57, 5.65, 10.17, 6.28, 10.5, 8.98, 10.76, 7.19, 11.47, 12.53, 7.21, 9.27, 11.86, 10.61, 6.47, 6.78, 4.47, 5.67, 4.6, 6.78, 8.58, 7.55, 6.76, 8.53, 7.11, 3.38, 9.07, 5.25, 10.44, 4.83, 5.66, 2.5, 9.33, 6.11, 3.95, 7.95, 10.32, 4.22, 8.96, 7.73, 8.85, 7.96, 7.14, 8.55, 7.03, 6.56, 9.34, 7.11, 10.92, 7.42, 8.1, 5.85, 5.69, 7.88, 14.5, 2.64, 8.6, 3.79, 7.63, 8.49, 6.21, 9.85, 7.2, 10.52, 7.59, 10.05, 3.62, 9.33, 6.9, 8.83, 3.63, 7.19, 11.57, 8.14, 10.25, 7.53, 8.73, 7.65, 8.9, 8.23, 9.7, 7.44, 7.83, 7.27, 7.55, 8.85, 7.54, 7.66, 6.53, 6.46, 6.49, 8.84, 3.02, 10.93, 7.81, 9.63, 7.55, 5.04, 5.41, 9.61, 8.16, 2.46, 10.55, 6.16, 6.81, 4.42, 11.02, 6.89, 8.77, 6.07];
